/
1,157.77,3.57
2,157.68,3.55
3,157.64,3.53
47,79.1,4.37
48,78.93,4.27
49,78.62,3.47
50,78.6,3.98
51,78.59,3.48
61,76.0,3.79
62,75.99,3.78
63,75.98,3.8
64,75.89,3.57
65,75.63,3.54
66,75.55,3.71
67,74.98,4.06
68,74.9,3.55
69,74.89,3.57
70,74.89,3.77
71,74.89,3.79
72,74.89,3.78
73,74.89,3.8
74,74.89,3.64
75,74.89,3.66
76,74.87,3.81
77,74.83,3.89
78,74.15,3.56
79,74.15,3.64
80,74.12,3.54
81,74.08,3.52
85,73.54,4.04
86,73.53,3.98
87,73.52,4.01
88,73.45,4.43
89,73.36,3.57
90,73.36,3.91
91,73.28,4.2
92,73.26,3.51
93,73.25,3.47
94,73.25,4.18
95,73.24,3.49
96,73.18,3.55
97,73.09,3.79
103,72.28,3.99
104,72.25,3.7
105,71.65,3.6
106,71.26,4.11
107,70.32,4.37
108,70.29,3.67
109,70.19,3.57
110,70.18,3.58
111,70.17,3.55
112,70.11,3.51
113,70.11,3.56
114,70.1,3.63
115,70.1,3.54
117,69.36,4.21
118,69.0,4.04
119,68.98,4.03
120,68.86,3.89
121,68.74,3.82
122,68.73,4.17
123,68.73,3.97
124,68.72,4.0
125,68.71,4.25
126,68.71,4.27
127,68.7,1.33
128,68.69,4.26
129,68.69,3.99
130,68.63,4.39
131,68.57,4.23
132,67.72,3.57
133,67.69,3.64
134,67.67,3.55
135,67.66,3.66
136,67.64,3.66
137,67.61,4.41
138,67.6,3.56
139,67.58,3.62
140,67.58,3.6
145,66.48,3.55
146,66.46,3.57
147,66.45,4.17
148,66.44,3.78
149,66.43,3.56
150,66.41,3.67
151,66.39,3.66
152,66.38,3.64
153,66.37,3.56
154,66.32,3.58
156,65.48,3.21
157,65.46,2.33
158,65.44,3.62
159,65.36,4.1
160,65.34,3.78
161,65.32,3.79
162,65.32,3.55
163,65.32,3.56
164,65.32,3.57
165,65.32,3.64
166,65.32,3.66
167,65.31,3.54
168,65.3,3.59
169,65.27,3.62
170,65.27,7.07
171,65.27,3.68
172,65.27,5.38
173,65.19,3.98
174,65.19,4.08
175,65.18,3.8
176,65.17,5.75
177,65.16,1.37
184,64.33,3.58
185,64.26,3.64
186,64.22,3.67
187,64.21,3.57
188,64.18,3.69
189,64.12,3.82
190,64.04,4.14
191,64.01,4.12
192,64.0,4.11
193,63.96,3.94
202,63.07,3.99
203,63.05,3.93
204,63.05,3.87
205,63.05,3.94
206,63.04,3.88
207,63.04,3.96
208,63.03,3.97
209,63.02,3.95
210,63.01,3.66
211,62.98,3.65
212,62.93,3.54
213,62.92,3.55
214,62.92,3.64
215,62.9,3.56
233,60.26,3.64
234,60.25,3.65
235,60.25,3.66
236,60.25,1.17
237,60.24,3.67
238,60.24,1.19
239,60.21,4.53
240,60.1,3.87
241,60.08,3.88
242,60.07,3.73
253,59.0,3.95
254,58.97,3.94
255,58.96,3.93
256,58.91,3.99
257,58.9,3.98
258,58.9,4.01
259,58.18,4.06
280,55.1,3.89
281,55.1,3.91
282,55.08,3.65
411,24.45,1.18
412,24.39,1.17
413,24.32,1.27
425,21.96,1.18
426,21.93,1.17
427,21.93,1.19
428,21.82,0.89
437,20.71,1.13
438,20.69,1.14
439,20.67,1.18
440,20.66,1.04
441,20.62,1.19
/
5,154.52,1.92
6,154.5,1.91
328,38.63,1.99
329,38.62,1.97
330,38.6,1.85
337,38.06,1.95
338,38.05,1.94
339,38.0,1.97
340,37.98,1.96
348,37.03,2.3
349,36.27,2.43
350,36.14,2.35
351,36.08,2.3
353,32.8,1.86
354,32.68,1.9
355,32.65,2.12
356,32.39,2.4
358,31.98,2.44
359,31.86,2.27
360,31.84,1.04
361,31.83,2.32
362,31.81,0.99
363,31.77,2.35
364,31.72,2.36
365,31.66,2.07
368,30.36,1.9
369,30.34,1.91
370,30.27,1.94
371,29.73,2.35
372,29.7,2.13
373,29.7,2.05
374,29.7,2.09
378,28.18,1.92
379,28.08,2.52
380,28.08,2.41
381,28.06,2.5
382,28.06,2.49
383,28.02,2.05
385,27.3,2.02
386,27.14,1.46
387,27.13,0.93
388,27.13,1.26
389,27.11,1.45
393,26.67,1.76
394,26.58,2.32
395,26.57,2.31
396,26.49,1.99
397,26.47,1.91
398,26.46,2.01
399,26.42,1.9
400,26.33,1.39
403,25.07,0.92
404,24.98,1.4
405,24.95,0.93
406,24.74,0.96
407,24.74,0.97
408,24.72,1.33
409,24.7,1.41
410,24.62,1.38
418,23.49,1.92
419,23.48,0.88
420,23.47,0.94
434,21.1,0.97
435,21.04,0.98
436,21.01,0.99
457,19.34,0.99
458,19.34,0.98
459,19.31,1.41
460,19.27,1.56
464,17.72,1.46
/
317,39.53,2.67
318,39.37,2.66
319,39.32,2.67
320,39.32,2.73
321,39.32,2.69
322,39.3,2.65
323,39.3,2.83
324,39.3,2.8
325,39.2,2.75
326,39.14,3.29
327,39.14,3.12
341,37.35,2.97
342,37.33,2.86
343,37.33,2.87
344,37.33,2.96
345,37.33,2.94
346,37.32,2.83
347,37.32,2.85
357,32.19,2.79
/
291,50.22,2.57
292,50.21,2.68
293,50.16,2.71
294,50.16,2.6
295,48.95,3.43
296,48.94,2.69
297,48.93,3.34
298,47.83,2.59
299,47.83,2.69
300,47.76,2.58
302,45.46,2.71
303,45.45,2.6
304,45.41,2.68
305,45.39,2.57
/
271,56.65,3.22
272,56.64,3.54
273,56.63,3.57
274,56.55,3.19
275,56.51,4.33
314,42.04,3.02
315,41.83,3.05
316,41.82,3.07
331,38.28,3.21
332,38.28,3.05
333,38.26,3.07
334,38.25,3.19
335,38.24,3.04
336,38.21,3.03
/
446,19.68,1.16
447,19.61,-0.58
448,19.6,1.01
449,19.59,3.66
450,19.58,3.65
451,19.58,1.16
452,19.58,2.93
453,19.58,1.18
454,19.58,1.19
455,19.57,1.2
456,19.54,-0.57
/
285,53.42,3.76
286,53.4,3.79
287,53.4,1.48
288,53.39,3.8
289,53.39,3.77
290,53.37,3.78
414,24.11,1.49
415,24.11,1.48
416,24.09,1.44
417,23.97,1.39
/
301,46.68,1.71
309,42.6,1.74
310,42.59,1.72
311,42.57,1.69
312,42.57,1.68
313,42.57,1.66
390,26.87,1.93
391,26.81,1.71
392,26.71,1.66
/
46,79.78,4.35
178,64.7,3.63
179,64.69,3.71
180,64.59,3.62
181,64.57,3.61
182,64.57,3.73
183,64.51,3.75
276,56.44,4.36
277,56.31,3.73
/
198,63.3,3.59
199,63.25,3.6
200,63.25,3.61
201,63.13,3.85
250,59.26,3.84
251,59.18,3.65
252,59.15,3.67
/
52,77.31,3.79
53,77.29,3.76
54,77.17,3.27
58,76.67,3.77
59,76.66,3.78
60,76.66,3.79
278,56.06,3.26
/
13,133.46,7.19
14,133.46,6.89
15,133.28,7.12
26,122.14,7.2
30,118.59,7.2
31,118.59,6.89
/
18,131.81,7.42
19,131.7,7.38
20,131.42,7.37
21,130.36,7.37
22,130.25,7.42
/
55,77.03,3.25
56,76.97,3.24
57,76.93,3.22
307,43.35,1.59
308,43.3,3.24
/
98,72.5,3.77
99,72.5,3.79
100,72.49,3.78
101,72.41,3.4
102,72.4,3.41
/
224,61.15,4.19
225,61.15,4.17
226,61.15,4.16
260,57.88,3.66
261,57.74,4.16
/
262,57.57,4.18
263,57.48,3.74
264,57.47,3.75
265,57.45,3.76
266,57.42,3.65
/
16,132.04,7.32
17,131.97,7.26
24,127.86,7.32
29,120.15,7.26
/
7,146.25,7.53
8,146.22,7.52
33,114.7,7.53
34,114.7,7.54
/
141,67.15,3.64
142,67.12,3.54
143,67.06,3.53
144,67.05,3.51
/
194,63.71,3.89
195,63.68,3.9
196,63.56,3.74
197,63.53,3.56
/
45,88.61,4.29
217,62.48,3.66
218,62.43,3.67
219,62.36,4.28
/
220,61.36,3.69
221,61.34,3.66
222,61.34,3.67
223,61.29,3.65
/
227,60.7,3.6
228,60.69,3.54
229,60.55,3.56
230,60.52,3.57
/
243,60.04,3.89
244,60.04,3.69
245,60.03,3.74
246,60.0,3.75
/
82,73.86,3.57
83,73.82,3.8
84,73.79,3.79
/
267,57.18,3.55
268,57.14,3.78
269,57.13,3.56
/
375,29.35,3.28
376,29.33,3.31
377,29.16,1.7
/
431,21.36,0.92
432,21.32,0.93
433,21.18,0.95
/
465,17.51,0.93
466,17.51,0.95
467,17.39,1.0
/
468,17.25,1.17
469,17.21,1.18
470,17.2,1.19
/
10,143.37,8.34
12,137.65,8.33
/
27,121.17,7.74
28,121.16,7.72
/
35,105.86,5.05
36,105.82,4.98
/
40,102.66,4.88
41,102.54,4.73
/
231,60.49,3.55
232,60.45,3.58
/
247,59.76,3.71
248,59.75,3.7
/
283,54.18,4.0
284,54.18,4.0
/
366,31.53,2.64
367,31.52,2.65
/
401,25.86,1.92
402,25.81,1.93
/
421,23.07,1.34
422,22.97,2.12
/
423,22.31,1.32
424,22.27,1.33
/
429,21.62,1.21
430,21.49,1.39
/
442,20.37,0.95
443,20.27,0.93
/
444,20.15,1.33
445,20.12,1.34
/
462,18.54,1.19
463,18.48,1.18
/
476,8.8,8.45
477,8.8,8.45
/
479,0.0,0.0
480,0.0,0.01
/
0,158.02,4.83
/
4,155.26,8.27
/
9,144.16,8.2
/
11,140.63,8.0
/
23,129.6,7.3
/
25,124.81,7.28
/
32,118.18,6.85
/
37,105.51,5.08
/
38,104.87,5.16
/
39,103.77,5.8
/
42,98.7,4.64
/
43,94.89,5.23
/
44,91.04,6.07
/
116,69.91,3.65
/
155,65.97,3.72
/
216,62.86,3.57
/
249,59.51,4.38
/
270,56.91,4.01
/
279,55.67,3.67
/
306,44.33,3.56
/
352,33.8,2.37
/
384,27.6,2.15
/
461,18.96,1.47
/
471,16.68,2.13
/
472,14.63,1.18
/
473,13.81,0.93
/
474,12.83,0.87
/
475,10.98,1.18
/
478,0.84,1.92
